letting initialStacks = [44, 22, 10, 47, 20, 7, 28, 23, 40, 9, 24, 29, 50, 3, 15, 37, 49, 32, 25, 51, 42, 4, 31, 13, 26, 30, 17, 43, 36, 48, 11, 46, 16, 38, 18, 35, 1, 39, 45, 21, 27, 6, 19, 8, 41, 34, 12, 5, 33, 2, 14]
